959
1233
276
1048
297
1417
738
132
1327
362
1459
123
241
1680
547
838
698
420
1622
1404
247
607
97
999
1536
656
1700
1302
296
879
913
1043
472
1877
1954
676
421
1014
120
1326
1082
268
680
1865
865
571
376
1369
641
1644
